0
0
0
0
21
0
0
0
0
0
0
0
0
0
0
0
0
0
0
0
0
0
0
0
0
0
1 2 1
1 3 1
1 4 0
1 5 1
1 6 1
1 7 1
1 8 1
1 9 1
1 10 1
1 11 0
1 12 1
1 13 1
1 14 1
1 15 1
1 16 1
1 17 0
1 18 1
1 19 0
1 20 1
1 21 0
2 3 0
2 4 0
2 5 0
2 6 1
2 7 1
2 8 0
2 9 1
2 10 1
2 11 0
2 12 0
2 13 1
2 14 0
2 15 0
2 16 1
2 17 1
2 18 1
2 19 1
2 20 1
2 21 1
3 4 0
3 5 0
3 6 1
3 7 1
3 8 1
3 9 0
3 10 0
3 11 0
3 12 1
3 13 1
3 14 0
3 15 1
3 16 0
3 17 1
3 18 1
3 19 1
3 20 0
3 21 1
4 5 0
4 6 0
4 7 1
4 8 1
4 9 0
4 10 0
4 11 0
4 12 0
4 13 1
4 14 1
4 15 0
4 16 1
4 17 0
4 18 1
4 19 1
4 20 0
4 21 1
5 6 1
5 7 0
5 8 1
5 9 0
5 10 0
5 11 0
5 12 1
5 13 0
5 14 1
5 15 1
5 16 1
5 17 1
5 18 1
5 19 1
5 20 0
5 21 1
6 7 0
6 8 0
6 9 1
6 10 0
6 11 1
6 12 0
6 13 0
6 14 1
6 15 1
6 16 0
6 17 0
6 18 0
6 19 0
6 20 1
6 21 1
7 8 0
7 9 1
7 10 0
7 11 1
7 12 0
7 13 0
7 14 0
7 15 0
7 16 0
7 17 0
7 18 0
7 19 1
7 20 1
7 21 1
8 9 0
8 10 0
8 11 1
8 12 1
8 13 1
8 14 1
8 15 0
8 16 0
8 17 1
8 18 0
8 19 0
8 20 1
8 21 1
9 10 1
9 11 1
9 12 0
9 13 1
9 14 1
9 15 0
9 16 1
9 17 1
9 18 1
9 19 1
9 20 1
9 21 0
10 11 0
10 12 1
10 13 0
10 14 0
10 15 1
10 16 0
10 17 1
10 18 1
10 19 1
10 20 1
10 21 1
11 12 1
11 13 1
11 14 0
11 15 1
11 16 0
11 17 0
11 18 1
11 19 1
11 20 0
11 21 1
12 13 1
12 14 0
12 15 0
12 16 1
12 17 0
12 18 1
12 19 1
12 20 1
12 21 1
13 14 1
13 15 0
13 16 0
13 17 0
13 18 0
13 19 0
13 20 0
13 21 1
14 15 0
14 16 1
14 17 0
14 18 1
14 19 0
14 20 0
14 21 1
15 16 1
15 17 1
15 18 1
15 19 1
15 20 0
15 21 0
16 17 1
16 18 1
16 19 1
16 20 1
16 21 1
17 18 1
17 19 0
17 20 1
17 21 0
18 19 0
18 20 1
18 21 1
19 20 0
19 21 1
20 21 0
